w = 23;
n = 19;
measures = [|3, 3,
|3, 4,
|3, 5,
|3, 6,
|3, 7,
|3, 8,
|3, 9,
|3, 10,
|3, 11,
|3, 12,
|3, 14,
|3, 20,
|4, 3,
|4, 4,
|4, 6,
|4, 10,
|4, 11,
|4, 12,
|6, 3,
|];
initial_x = [0, 3, 6, 9, 12, 15, 18, 0, 3, 6, 9, 12, 15, 19, 0, 4, 8, 12, 16];
initial_y = [0, 0, 0, 0, 0, 0, 0, 9, 9, 9, 9, 9, 9, 9, 29, 29, 29, 29, 29];